n_jobs	=	15;
init_inventory	=	61111;
capa_inventory	=	68111;
type_inventory	=	[1, 0, 1, 0, 0, 0, 1, 0, 1, 0, 0, 1, 0, 1, 1];
processing	=	[85011, 87011, 74011, 3211, 7011, 8111, 73011, 2011, 16011, 3011, 40011, 25111, 42011, 47011, 76011];
weight	=	[8, 9, 7, 7, 8, 4, 8, 3, 8, 2, 3, 6, 2, 9, 7];
release	=	[608011, 1000, 1300011, 208011, 97011, 2387011, 649011, 74, 182011, 505011, 1991011, 183011, 800, 2293011, 641011];
inventory	=	[4111, 2111, 7111, 7111, 1111, 6111, 6111, 6111, 1111, 8111, 5111, 8111, 3111, 7111, 8111];
